language ESSENCE' 1.0

letting C_FunctionND be
        [[0, 0, 0, 0, 0, 0, 0, 0, 0, 0, 0, 0, 0, 0, 0, 0; int(0..15)],
         [1, 0, 0, 0, 0, 0, 0, 0, 0, 0, 0, 0, 0, 0, 0, 0; int(0..15)],
         [1, 0, 0, 0, 0, 0, 0, 0, 0, 0, 0, 0, 0, 0, 0, 0; int(0..15)],
         [1, 0, 0, 0, 0, 0, 0, 0, 0, 0, 0, 0, 0, 0, 0, 0; int(0..15)],
         [1, 0, 0, 0, 0, 0, 0, 0, 0, 0, 0, 0, 0, 0, 0, 0; int(0..15)],
         [0, 1, 1, 0, 0, 0, 0, 0, 0, 0, 0, 0, 0, 0, 0, 0; int(0..15)],
         [0, 1, 0, 1, 0, 0, 0, 0, 0, 0, 0, 0, 0, 0, 0, 0; int(0..15)],
         [0, 1, 0, 0, 1, 0, 0, 0, 0, 0, 0, 0, 0, 0, 0, 0; int(0..15)],
         [0, 0, 1, 1, 0, 0, 0, 0, 0, 0, 0, 0, 0, 0, 0, 0; int(0..15)],
         [0, 0, 1, 0, 1, 0, 0, 0, 0, 0, 0, 0, 0, 0, 0, 0; int(0..15)],
         [0, 0, 0, 1, 1, 0, 0, 0, 0, 0, 0, 0, 0, 0, 0, 0; int(0..15)],
         [0, 0, 0, 0, 0, 1, 1, 0, 1, 0, 0, 0, 0, 0, 0, 0; int(0..15)],
         [0, 0, 0, 0, 0, 1, 0, 1, 0, 1, 0, 0, 0, 0, 0, 0; int(0..15)],
         [0, 0, 0, 0, 0, 0, 1, 1, 0, 0, 1, 0, 0, 0, 0, 0; int(0..15)],
         [0, 0, 0, 0, 0, 0, 0, 0, 1, 1, 1, 0, 0, 0, 0, 0; int(0..15)],
         [0, 0, 0, 0, 0, 0, 0, 0, 0, 0, 0, 1, 1, 1, 1, 0; int(0..15)];
             int(0..15)]
$ Visualisation for C_FunctionND
$ 0 0 0 0 0 0 0 0 0 0 0 0 0 0 0 0
$ 1 0 0 0 0 0 0 0 0 0 0 0 0 0 0 0
$ 1 0 0 0 0 0 0 0 0 0 0 0 0 0 0 0
$ 1 0 0 0 0 0 0 0 0 0 0 0 0 0 0 0
$ 1 0 0 0 0 0 0 0 0 0 0 0 0 0 0 0
$ 0 1 1 0 0 0 0 0 0 0 0 0 0 0 0 0
$ 0 1 0 1 0 0 0 0 0 0 0 0 0 0 0 0
$ 0 1 0 0 1 0 0 0 0 0 0 0 0 0 0 0
$ 0 0 1 1 0 0 0 0 0 0 0 0 0 0 0 0
$ 0 0 1 0 1 0 0 0 0 0 0 0 0 0 0 0
$ 0 0 0 1 1 0 0 0 0 0 0 0 0 0 0 0
$ 0 0 0 0 0 1 1 0 1 0 0 0 0 0 0 0
$ 0 0 0 0 0 1 0 1 0 1 0 0 0 0 0 0
$ 0 0 0 0 0 0 1 1 0 0 1 0 0 0 0 0
$ 0 0 0 0 0 0 0 0 1 1 1 0 0 0 0 0
$ 0 0 0 0 0 0 0 0 0 0 0 1 1 1 1 0

letting J_FunctionND be
        [[0, 1, 2, 3, 4, 5, 6, 7, 8, 9, 10, 11, 12, 13, 14, 15; int(0..15)],
         [1, 1, 5, 6, 7, 5, 6, 7, 11, 12, 13, 11, 12, 13, 15, 15; int(0..15)],
         [2, 5, 2, 8, 9, 5, 11, 12, 8, 9, 14, 11, 12, 15, 14, 15; int(0..15)],
         [3, 6, 8, 3, 10, 11, 6, 13, 8, 14, 10, 11, 15, 13, 14, 15; int(0..15)],
         [4, 7, 9, 10, 4, 12, 13, 7, 14, 9, 10, 15, 12, 13, 14, 15; int(0..15)],
         [5, 5, 5, 11, 12, 5, 11, 12, 11, 12, 15, 11, 12, 15, 15, 15; int(0..15)],
         [6, 6, 11, 6, 13, 11, 6, 13, 11, 15, 13, 11, 15, 13, 15, 15; int(0..15)],
         [7, 7, 12, 13, 7, 12, 13, 7, 15, 12, 13, 15, 12, 13, 15, 15; int(0..15)],
         [8, 11, 8, 8, 14, 11, 11, 15, 8, 14, 14, 11, 15, 15, 14, 15; int(0..15)],
         [9, 12, 9, 14, 9, 12, 15, 12, 14, 9, 14, 15, 12, 15, 14, 15; int(0..15)],
         [10, 13, 14, 10, 10, 15, 13, 13, 14, 14, 10, 15, 15, 13, 14, 15; int(0..15)],
         [11, 11, 11, 11, 15, 11, 11, 15, 11, 15, 15, 11, 15, 15, 15, 15; int(0..15)],
         [12, 12, 12, 15, 12, 12, 15, 12, 15, 12, 15, 15, 12, 15, 15, 15; int(0..15)],
         [13, 13, 15, 13, 13, 15, 13, 13, 15, 15, 13, 15, 15, 13, 15, 15; int(0..15)],
         [14, 15, 14, 14, 14, 15, 15, 15, 14, 14, 14, 15, 15, 15, 14, 15; int(0..15)],
         [15, 15, 15, 15, 15, 15, 15, 15, 15, 15, 15, 15, 15, 15, 15, 15; int(0..15)];
             int(0..15)]
$ Visualisation for J_FunctionND
$  0  1  2  3  4  5  6  7  8  9 10 11 12 13 14 15
$  1  1  5  6  7  5  6  7 11 12 13 11 12 13 15 15
$  2  5  2  8  9  5 11 12  8  9 14 11 12 15 14 15
$  3  6  8  3 10 11  6 13  8 14 10 11 15 13 14 15
$  4  7  9 10  4 12 13  7 14  9 10 15 12 13 14 15
$  5  5  5 11 12  5 11 12 11 12 15 11 12 15 15 15
$  6  6 11  6 13 11  6 13 11 15 13 11 15 13 15 15
$  7  7 12 13  7 12 13  7 15 12 13 15 12 13 15 15
$  8 11  8  8 14 11 11 15  8 14 14 11 15 15 14 15
$  9 12  9 14  9 12 15 12 14  9 14 15 12 15 14 15
$ 10 13 14 10 10 15 13 13 14 14 10 15 15 13 14 15
$ 11 11 11 11 15 11 11 15 11 15 15 11 15 15 15 15
$ 12 12 12 15 12 12 15 12 15 12 15 15 12 15 15 15
$ 13 13 15 13 13 15 13 13 15 15 13 15 15 13 15 15
$ 14 15 14 14 14 15 15 15 14 14 14 15 15 15 14 15
$ 15 15 15 15 15 15 15 15 15 15 15 15 15 15 15 15

letting M_FunctionND be
        [[0, 0, 0, 0, 0, 0, 0, 0, 0, 0, 0, 0, 0, 0, 0, 0; int(0..15)],
         [0, 1, 0, 0, 0, 1, 1, 1, 0, 0, 0, 1, 1, 1, 0, 1; int(0..15)],
         [0, 0, 2, 0, 0, 2, 0, 0, 2, 2, 0, 2, 2, 0, 2, 2; int(0..15)],
         [0, 0, 0, 3, 0, 0, 3, 0, 3, 0, 3, 3, 0, 3, 3, 3; int(0..15)],
         [0, 0, 0, 0, 4, 0, 0, 4, 0, 4, 4, 0, 4, 4, 4, 4; int(0..15)],
         [0, 1, 2, 0, 0, 5, 1, 1, 2, 2, 0, 5, 5, 1, 2, 5; int(0..15)],
         [0, 1, 0, 3, 0, 1, 6, 1, 3, 0, 3, 6, 1, 6, 3, 6; int(0..15)],
         [0, 1, 0, 0, 4, 1, 1, 7, 0, 4, 4, 1, 7, 7, 4, 7; int(0..15)],
         [0, 0, 2, 3, 0, 2, 3, 0, 8, 2, 3, 8, 2, 3, 8, 8; int(0..15)],
         [0, 0, 2, 0, 4, 2, 0, 4, 2, 9, 4, 2, 9, 4, 9, 9; int(0..15)],
         [0, 0, 0, 3, 4, 0, 3, 4, 3, 4, 10, 3, 4, 10, 10, 10; int(0..15)],
         [0, 1, 2, 3, 0, 5, 6, 1, 8, 2, 3, 11, 5, 6, 8, 11; int(0..15)],
         [0, 1, 2, 0, 4, 5, 1, 7, 2, 9, 4, 5, 12, 7, 9, 12; int(0..15)],
         [0, 1, 0, 3, 4, 1, 6, 7, 3, 4, 10, 6, 7, 13, 10, 13; int(0..15)],
         [0, 0, 2, 3, 4, 2, 3, 4, 8, 9, 10, 8, 9, 10, 14, 14; int(0..15)],
         [0, 1, 2, 3, 4, 5, 6, 7, 8, 9, 10, 11, 12, 13, 14, 15; int(0..15)];
             int(0..15)]
$ Visualisation for M_FunctionND
$  0  0  0  0  0  0  0  0  0  0  0  0  0  0  0  0
$  0  1  0  0  0  1  1  1  0  0  0  1  1  1  0  1
$  0  0  2  0  0  2  0  0  2  2  0  2  2  0  2  2
$  0  0  0  3  0  0  3  0  3  0  3  3  0  3  3  3
$  0  0  0  0  4  0  0  4  0  4  4  0  4  4  4  4
$  0  1  2  0  0  5  1  1  2  2  0  5  5  1  2  5
$  0  1  0  3  0  1  6  1  3  0  3  6  1  6  3  6
$  0  1  0  0  4  1  1  7  0  4  4  1  7  7  4  7
$  0  0  2  3  0  2  3  0  8  2  3  8  2  3  8  8
$  0  0  2  0  4  2  0  4  2  9  4  2  9  4  9  9
$  0  0  0  3  4  0  3  4  3  4 10  3  4 10 10 10
$  0  1  2  3  0  5  6  1  8  2  3 11  5  6  8 11
$  0  1  2  0  4  5  1  7  2  9  4  5 12  7  9 12
$  0  1  0  3  4  1  6  7  3  4 10  6  7 13 10 13
$  0  0  2  3  4  2  3  4  8  9 10  8  9 10 14 14
$  0  1  2  3  4  5  6  7  8  9 10 11 12 13 14 15

letting R_Function1D be [0, 1, 1, 1, 1, 2, 2, 2, 2, 2, 2, 3, 3, 3, 3, 4; int(0..15)]
